
Gurobi 13.0.1 (linux64, gurobi_cl) logging started Wed Apr  8 16:40:54 2026

Set parameter Username
Set parameter LicenseID to value 2797845
Set parameter LogFile to value "gurobi.log"
Using license file /home/abigaylmontantearenas/gurobi.lic
Academic license - for non-commercial use only - expires 2027-03-24
